c A SAT instance generated from a 3-CNF formula that had 20 clauses and 10 variables
p cnf 10 20
-4 9 -5 0
1 -3 -7 0
-3 -5 7 0
-2 6 -5 0
-8 6 5 0
2 -4 -7 0
5 -1 -10 0
-7 -4 1 0
3 1 8 0
-5 -6 -8 0
1 -5 -3 0
-10 -1 -3 0
9 2 3 0
-9 6 -4 0
3 6 -10 0
-1 -7 5 0
-8 -2 -9 0
-1 -8 5 0
2 -9 8 0
3 9 2 0
